certificates/rado_a12_c44_N33.cnf
c Rad2 upper bound instance: x1 + 12*x2 - x3 = 44, interval [1,33]
p cnf 33 180
1 4 5 0
-1 -4 -5 0
1 5 17 0
-1 -5 -17 0
1 6 29 0
-1 -6 -29 0
2 4 6 0
-2 -4 -6 0
2 5 18 0
-2 -5 -18 0
2 6 30 0
-2 -6 -30 0
3 4 7 0
-3 -4 -7 0
3 5 19 0
-3 -5 -19 0
3 6 31 0
-3 -6 -31 0
4 8 0
-4 -8 0
4 5 20 0
-4 -5 -20 0
4 6 32 0
-4 -6 -32 0
4 5 9 0
-4 -5 -9 0
5 21 0
-5 -21 0
5 6 33 0
-5 -6 -33 0
4 6 10 0
-4 -6 -10 0
5 6 22 0
-5 -6 -22 0
4 7 11 0
-4 -7 -11 0
5 7 23 0
-5 -7 -23 0
4 8 12 0
-4 -8 -12 0
5 8 24 0
-5 -8 -24 0
1 3 9 0
-1 -3 -9 0
4 9 13 0
-4 -9 -13 0
5 9 25 0
-5 -9 -25 0
2 3 10 0
-2 -3 -10 0
4 10 14 0
-4 -10 -14 0
5 10 26 0
-5 -10 -26 0
3 11 0
-3 -11 0
4 11 15 0
-4 -11 -15 0
5 11 27 0
-5 -11 -27 0
3 4 12 0
-3 -4 -12 0
4 12 16 0
-4 -12 -16 0
5 12 28 0
-5 -12 -28 0
3 5 13 0
-3 -5 -13 0
4 13 17 0
-4 -13 -17 0
5 13 29 0
-5 -13 -29 0
3 6 14 0
-3 -6 -14 0
4 14 18 0
-4 -14 -18 0
5 14 30 0
-5 -14 -30 0
3 7 15 0
-3 -7 -15 0
4 15 19 0
-4 -15 -19 0
5 15 31 0
-5 -15 -31 0
3 8 16 0
-3 -8 -16 0
4 16 20 0
-4 -16 -20 0
5 16 32 0
-5 -16 -32 0
3 9 17 0
-3 -9 -17 0
4 17 21 0
-4 -17 -21 0
5 17 33 0
-5 -17 -33 0
3 10 18 0
-3 -10 -18 0
4 18 22 0
-4 -18 -22 0
3 11 19 0
-3 -11 -19 0
4 19 23 0
-4 -19 -23 0
3 12 20 0
-3 -12 -20 0
4 20 24 0
-4 -20 -24 0
1 2 21 0
-1 -2 -21 0
3 13 21 0
-3 -13 -21 0
4 21 25 0
-4 -21 -25 0
2 22 0
-2 -22 0
3 14 22 0
-3 -14 -22 0
4 22 26 0
-4 -22 -26 0
2 3 23 0
-2 -3 -23 0
3 15 23 0
-3 -15 -23 0
4 23 27 0
-4 -23 -27 0
2 4 24 0
-2 -4 -24 0
3 16 24 0
-3 -16 -24 0
4 24 28 0
-4 -24 -28 0
2 5 25 0
-2 -5 -25 0
3 17 25 0
-3 -17 -25 0
4 25 29 0
-4 -25 -29 0
2 6 26 0
-2 -6 -26 0
3 18 26 0
-3 -18 -26 0
4 26 30 0
-4 -26 -30 0
2 7 27 0
-2 -7 -27 0
3 19 27 0
-3 -19 -27 0
4 27 31 0
-4 -27 -31 0
2 8 28 0
-2 -8 -28 0
3 20 28 0
-3 -20 -28 0
4 28 32 0
-4 -28 -32 0
2 9 29 0
-2 -9 -29 0
3 21 29 0
-3 -21 -29 0
4 29 33 0
-4 -29 -33 0
2 10 30 0
-2 -10 -30 0
3 22 30 0
-3 -22 -30 0
2 11 31 0
-2 -11 -31 0
3 23 31 0
-3 -23 -31 0
2 12 32 0
-2 -12 -32 0
3 24 32 0
-3 -24 -32 0
1 33 0
-1 -33 0
2 13 33 0
-2 -13 -33 0
3 25 33 0
-3 -25 -33 0
