certificates/rado_a12_c44_N33.drat
4 -33 0
-33 0
1 0
-4 0
8 0
29 0
-6 0
32 0
5 0
10 0
2 0
-17 0
-21 0
-16 0
-13 0
-24 0
-26 0
-3 0
-22 0
-12 0
-30 0
-9 0
-18 0
-25 0
-28 0
0
